300
500
398
397
397
395
394
394
393
387
384
384
383
381
381
381
380
377
375
373
373
373
372
372
370
369
369
368
368
367
365
363
362
361
361
360
359
359
358
357
355
355
353
350
350
349
349
348
346
346
346
345
343
343
341
338
338
334
333
333
333
329
327
327
325
322
322
322
321
321
321
320
319
318
314
310
309
309
308
307
307
304
304
303
302
302
301
301
301
300
299
296
294
291
290
290
289
289
286
282
281
277
275
273
273
272
272
269
268
266
265
258
257
256
254
253
252
251
251
250
248
246
246
246
246
244
242
242
241
241
240
239
236
236
236
236
234
233
233
229
229
227
227
226
223
222
221
221
221
220
219
218
218
217
216
216
215
213
213
207
207
206
203
200
199
199
199
191
188
187
185
182
182
182
182
179
178
173
173
173
172
172
172
172
171
168
168
168
168
167
166
165
163
163
162
162
158
158
158
152
152
152
149
149
149
145
140
139
139
137
136
135
134
134
133
131
131
130
129
128
128
128
128
127
126
123
123
122
121
121
120
120
118
118
118
118
118
117
115
113
113
112
112
108
108
108
107
107
106
106
105
103
100
99
97
97
96
95
94
93
92
92
89
88
87
86
84
83
81
80
79
77
77
75
75
74
74
72
72
71
71
70
68
67
67
66
66
65
62
61
61
59
57
57
57
56
53
52
51
51
50
50
